Titan 0.707106781187 3.0
   1.0
   13.24  0.00  0.00
    0.00  9.36209378291  0.00
    0.00  0.00  9.36209378291
  Al V  Ti
  6  2 56
Direct
0.0625 0.5 0.375
0.4375 0.75 0.875
0.6875 0.25 0.125
0.4375 0.25 0.625
0.1875 0.75 0.125
0.9375 0.25 0.875
0.3125 1.0 0.375
0.1875 0.75 0.875
0.9375 0.75 0.125
0.6875 0.75 0.375
0.0625 6.93889390391e-17 0.125
0.1875 0.25 0.125
0.1875 0.25 0.375
0.0625 6.93889390391e-17 0.625
0.1875 0.25 0.625
0.1875 0.25 0.875
0.0625 0.5 0.875
0.0625 0.5 0.125
0.1875 0.75 0.375
0.0625 1.0 0.375
0.0625 0.5 0.625
0.1875 0.75 0.625
0.0625 1.0 0.875
0.3125 6.93889390391e-17 0.125
0.4375 0.25 0.125
0.4375 0.25 0.375
0.3125 0.5 0.375
0.3125 6.93889390391e-17 0.625
0.4375 0.25 0.875
0.3125 0.5 0.875
0.3125 0.5 0.125
0.4375 0.75 0.125
0.4375 0.75 0.375
0.3125 0.5 0.625
0.4375 0.75 0.625
0.3125 1.0 0.875
0.5625 6.93889390391e-17 0.125
0.6875 0.25 0.375
0.5625 0.5 0.375
0.5625 6.93889390391e-17 0.625
0.6875 0.25 0.625
0.6875 0.25 0.875
0.5625 0.5 0.875
0.5625 0.5 0.125
0.6875 0.75 0.125
0.5625 1.0 0.375
0.5625 0.5 0.625
0.6875 0.75 0.625
0.6875 0.75 0.875
0.5625 1.0 0.875
0.8125 6.93889390391e-17 0.125
0.9375 0.25 0.125
0.9375 0.25 0.375
0.8125 0.5 0.375
0.8125 6.93889390391e-17 0.625
0.9375 0.25 0.625
0.8125 0.5 0.875
0.8125 0.5 0.125
0.9375 0.75 0.375
0.8125 1.0 0.375
0.8125 0.5 0.625
0.9375 0.75 0.625
0.9375 0.75 0.875
0.8125 1.0 0.875
