fcc Cu
 -10.0
   0.000 0.500 0.500
   0.500 0.000 0.500
   0.500 0.500 0.000 
     Cu
     1
Direct
0.0 0.0 0.0

